p edge 13 35
e 4 3
e 5 1
e 5 3
e 6 1
e 6 2
e 6 4
e 7 6
e 8 2
e 8 3
e 8 4
e 8 6
e 9 1
e 9 2
e 9 3
e 9 4
e 9 7
e 9 8
e 10 1
e 10 2
e 10 3
e 10 4
e 10 9
e 11 2
e 11 3
e 11 4
e 11 10
e 12 3
e 12 4
e 12 5
e 12 7
e 13 1
e 13 4
e 13 5
e 13 7
e 13 11
